Traveling Salesman Problem/TSP_generados/Aleatorio1620390919_8.tsp
NAME: Aleatorio1620390919_8.tsp
COMMENT: Randomly generated scenario
TYPE: TSP
DIMENSION: 8
EDGE_WEIGHT_TYPE: ATT
NODE_COORD_SECTION
1 12.65 12.73
2 3.82 35.1
3 6.06 46.92
4 37.44 18.83
5 41.07 42.15
6 29.38 4.25
7 40.78 2.44
8 35.08 10.14
