Traveling Salesman Problem/TSP_generados/Aleatorio1620390919_8.opt.tour
NAME: Aleatorio1620390919_8.opt.tour
COMMENT: Optimal solution for Aleatorio1620390919_8 (143.89848029931468)
TYPE: TOUR
DIMENSION: 8
TOUR_SECTION
1 2 3 5 4 8 7 6
-1
EOF
